HUN,8,6,829
4,21,0,29,3,18,1,26,2,24,5,19
2,2,3,24,5,17,4,21,1,15,0,4
0,6,1,29,4,30,2,19,5,5,3,5
5,8,0,18,2,9,3,8,1,24,4,4
1,7,4,14,5,29,2,28,0,30,3,4
2,3,5,9,1,30,0,24,4,16,3,20
1,8,3,6,5,17,0,30,2,28,4,23
2,21,0,17,4,8,5,25,3,3,1,22
